$ Grid indexing is 1-based

$ 0 0 0 0 0
$ 0 2 * 2 0
$ 0 2 b g 0
$ 0 0 0 0 0

$ key: 
$ 0 dead
$ 1 ice
$ 2 normal
letting gridInit be [[0, 0, 0, 0, 0],
                     [0, 2, 2, 2, 0],
                     [0, 2, 2, 2, 0],
                     [0, 0, 0, 0, 0]]
      
letting avatarInitRow be 2
letting avatarInitCol be 3
letting numBlocks be 1
letting blocksInitRow be [3]
letting blocksInitCol be [3]
letting blocksGoalRow be [3]
letting blocksGoalCol be [4]

letting steps be 2